c ---- [ banner ] ------------------------------------------------------------
c
c Kissat SAT Solver
c 
c Copyright (c) 2021-2022 Armin Biere University of Freiburg
c Copyright (c) 2019-2021 Armin Biere Johannes Kepler University Linz
c 
c Version 3.0.0 97917ddf2b12adc6f63c7b2a5a403a1ee7d81836
c gcc (Ubuntu 9.4.0-1ubuntu1~20.04.1) 9.4.0 -W -Wall -O3 -DNDEBUG
c Fri Oct 7 14:23:58 PDT 2022 Linux jap-Lenovo-Yoga-C740-15IML 5.15.0-48-generic x86_64
c
c ---- [ parsing ] -----------------------------------------------------------
c
c opened and reading DIMACS file:
c
c   Pigeon10Holes6
c
c parsed 'p cnf 60 280' header
c closing input after reading 2823 bytes (3 KB)
c finished parsing after 0.00 seconds
c
c ---- [ solving ] -----------------------------------------------------------
c
c  seconds switched rate      trail  variables
c         MB reductions conflicts glue   remaining
c          level restarts redundant irredundant
c
c *  0.00  1 0 0 0  0 0   0   0 0% 0 280 60 98%
c {  0.00  1 0 0 0  0 0   0   0 0% 0 280 60 98%
c i  0.00  1 6 0 0  7 2 206 203 95% 4 280 59 97%
c i  0.00  1 7 0 0 29 2 364 357 95% 4 280 58 95%
c u  0.01  3 7 0 0 44 2 606 135 94% 4 280 58 95%
c v  0.01  3 7 0 0 44 2 606  95 94% 4 280 57 93%
c i  0.01  3 7 0 0 44 2 606  93 94% 4 280 57 93%
c i  0.01  3 7 0 0 67 2 815 301 94% 4 280 56 92%
c i  0.01  3 7 0 0 67 2 863 348 94% 4 280 55 90%
c i  0.01  3 7 0 0 67 2 880 364 94% 4 280 54 89%
c i  0.01  3 7 0 0 67 2 902 385 94% 4 280 53 87%
c i  0.01  3 7 0 0 85 2 978 457 94% 4 280 52 85%
c i  0.02  3 7 0 0 91 2 997 475 93% 4 280 51 84%
c -  0.02  3 7 0 1 93 2 1001 197 93% 4 203 51 84%
c }  0.02  3 7 1 1 93 2 1001 197 93% 4 203 51 84%
c [  0.02  3 0 1 1 93 0 1001 197 0% 0 203 51 84%
c B  0.02  3 0 1 1 93 0 1001 197 0% 0 203 51 84%
c i  0.02  3 5 1 1 93 1 1062 252 86% 3 203 42 69%
c ]  0.02  3 5 1 1 93 1 1075 261 85% 3 203 13 21%
c 0  0.02  3 7 1 1 93 2 1075 261 93% 4 203 13 21%
c
c ---- [ result ] ------------------------------------------------------------
c
s UNSATISFIABLE
c
c ---- [ profiling ] ---------------------------------------------------------
c
c           0.01   88.68 %  search
c           0.01   81.28 %  focused
c           0.00    9.27 %  probe
c           0.00    9.27 %  simplify
c           0.00    6.44 %  stable
c           0.00    6.11 %  vivify
c           0.00    1.57 %  reduce
c           0.00    1.42 %  substitute
c           0.00    1.11 %  sweep
c           0.00    1.09 %  parse
c           0.00    0.58 %  backbone
c =============================================
c           0.02  100.00 %  total
c
c ---- [ statistics ] --------------------------------------------------------
c
c conflicts:                             1075            61284.99 per second
c decisions:                             1892                1.76 per conflict
c propagations:                         24981          1424149    per second
c reductions:                               1             1075    interval
c rephased:                                 1             1075    interval
c restarts:                                93               11.56 interval
c strengthened:                            42                0 %  checks
c subsumed:                                23                0 %  checks
c vivified:                               188               98 %  checks
c
c ---- [ resources ] ---------------------------------------------------------
c
c maximum-resident-set-size:          2830336 bytes          3 MB
c process-time:                                              0.02 seconds
c
c ---- [ shutting down ] -----------------------------------------------------
c
c exit 20
